309 328
322 341
339 358
352 371
369 388
382 401
399 418
412 431
429 448
442 461
459 468
472 491
489 508
502 521
519 538
532 551
549 568
562 571
579 598
592 611
609 628
622 641
639 658
652 671
669 688
682 701
699 718
712 731
729 748
742 761
759 778
772 791
789 808
802 821
819 838
832 851
849 868
862 881
879 898
892 911
909 928
922 941
939 958
952 971
969 988
982 1001
999 1018
1012 1031
1029 1048
1042 1061
1059 1068
1072 1091
1089 1108
1102 1121
1119 1138
1132 1151
1148 1167
1162 1181
1178 1197
1192 1211
1219 1238
1249 1258
1279 1298
1309 1328
1339 1358
1369 1378
1399 1418
1429 1448
1462 1481
